c nIsolatedPIs 0
c maxPI 20
p cnf 671 1954
c gate 21 5 20 0
5 -21 0
20 -21 0
-5 -20 21 0
c gate 22 9 12 0
9 -22 0
12 -22 0
-9 -12 22 0
c gate 23 10 13 0
10 -23 0
13 -23 0
-10 -13 23 0
c gate 24 22 23 0
22 -24 0
23 -24 0
-22 -23 24 0
c gate 25 10 12 0
10 -25 0
12 -25 0
-10 -12 25 0
c gate 26 9 13 0
9 -26 0
13 -26 0
-9 -13 26 0
c gate 27 -25 -26 0
-25 -27 0
-26 -27 0
25 26 27 0
c gate 28 -24 -27 0
-24 -28 0
-27 -28 0
24 27 28 0
c gate 29 10 11 0
10 -29 0
11 -29 0
-10 -11 29 0
c gate 30 22 29 0
22 -30 0
29 -30 0
-22 -29 30 0
c gate 31 8 13 0
8 -31 0
13 -31 0
-8 -13 31 0
c gate 32 -22 -29 0
-22 -32 0
-29 -32 0
22 29 32 0
c gate 33 -30 -32 0
-30 -33 0
-32 -33 0
30 32 33 0
c gate 34 31 33 0
31 -34 0
33 -34 0
-31 -33 34 0
c gate 35 -30 -34 0
-30 -35 0
-34 -35 0
30 34 35 0
c gate 36 28 -35 0
28 -36 0
-35 -36 0
-28 35 36 0
c gate 37 6 16 0
6 -37 0
16 -37 0
-6 -16 37 0
c gate 38 7 15 0
7 -38 0
15 -38 0
-7 -15 38 0
c gate 39 8 14 0
8 -39 0
14 -39 0
-8 -14 39 0
c gate 40 -38 -39 0
-38 -40 0
-39 -40 0
38 39 40 0
c gate 41 38 39 0
38 -41 0
39 -41 0
-38 -39 41 0
c gate 42 -40 -41 0
-40 -42 0
-41 -42 0
40 41 42 0
c gate 43 -37 -42 0
-37 -43 0
-42 -43 0
37 42 43 0
c gate 44 37 42 0
37 -44 0
42 -44 0
-37 -42 44 0
c gate 45 -43 -44 0
-43 -45 0
-44 -45 0
43 44 45 0
c gate 46 -28 35 0
-28 -46 0
35 -46 0
28 -35 46 0
c gate 47 -36 -46 0
-36 -47 0
-46 -47 0
36 46 47 0
c gate 48 45 47 0
45 -48 0
47 -48 0
-45 -47 48 0
c gate 49 -36 -48 0
-36 -49 0
-48 -49 0
36 48 49 0
c gate 50 7 16 0
7 -50 0
16 -50 0
-7 -16 50 0
c gate 51 8 15 0
8 -51 0
15 -51 0
-8 -15 51 0
c gate 52 9 14 0
9 -52 0
14 -52 0
-9 -14 52 0
c gate 53 -51 -52 0
-51 -53 0
-52 -53 0
51 52 53 0
c gate 54 51 52 0
51 -54 0
52 -54 0
-51 -52 54 0
c gate 55 -53 -54 0
-53 -55 0
-54 -55 0
53 54 55 0
c gate 56 -50 -55 0
-50 -56 0
-55 -56 0
50 55 56 0
c gate 57 50 55 0
50 -57 0
55 -57 0
-50 -55 57 0
c gate 58 -56 -57 0
-56 -58 0
-57 -58 0
56 57 58 0
c gate 59 -22 23 0
-22 -59 0
23 -59 0
22 -23 59 0
c gate 60 58 59 0
58 -60 0
59 -60 0
-58 -59 60 0
c gate 61 -58 -59 0
-58 -61 0
-59 -61 0
58 59 61 0
c gate 62 -60 -61 0
-60 -62 0
-61 -62 0
60 61 62 0
c gate 63 -49 62 0
-49 -63 0
62 -63 0
49 -62 63 0
c gate 64 4 18 0
4 -64 0
18 -64 0
-4 -18 64 0
c gate 65 5 17 0
5 -65 0
17 -65 0
-5 -17 65 0
c gate 66 64 65 0
64 -66 0
65 -66 0
-64 -65 66 0
c gate 67 3 19 0
3 -67 0
19 -67 0
-3 -19 67 0
c gate 68 -64 -65 0
-64 -68 0
-65 -68 0
64 65 68 0
c gate 69 -66 -68 0
-66 -69 0
-68 -69 0
66 68 69 0
c gate 70 67 69 0
67 -70 0
69 -70 0
-67 -69 70 0
c gate 71 -66 -70 0
-66 -71 0
-70 -71 0
66 70 71 0
c gate 72 4 19 0
4 -72 0
19 -72 0
-4 -19 72 0
c gate 73 5 18 0
5 -73 0
18 -73 0
-5 -18 73 0
c gate 74 6 17 0
6 -74 0
17 -74 0
-6 -17 74 0
c gate 75 73 74 0
73 -75 0
74 -75 0
-73 -74 75 0
c gate 76 -73 -74 0
-73 -76 0
-74 -76 0
73 74 76 0
c gate 77 -75 -76 0
-75 -77 0
-76 -77 0
75 76 77 0
c gate 78 72 77 0
72 -78 0
77 -78 0
-72 -77 78 0
c gate 79 -72 -77 0
-72 -79 0
-77 -79 0
72 77 79 0
c gate 80 -78 -79 0
-78 -80 0
-79 -80 0
78 79 80 0
c gate 81 -41 -44 0
-41 -81 0
-44 -81 0
41 44 81 0
c gate 82 80 -81 0
80 -82 0
-81 -82 0
-80 81 82 0
c gate 83 -80 81 0
-80 -83 0
81 -83 0
80 -81 83 0
c gate 84 -82 -83 0
-82 -84 0
-83 -84 0
82 83 84 0
c gate 85 71 -84 0
71 -85 0
-84 -85 0
-71 84 85 0
c gate 86 -71 84 0
-71 -86 0
84 -86 0
71 -84 86 0
c gate 87 -85 -86 0
-85 -87 0
-86 -87 0
85 86 87 0
c gate 88 49 -62 0
49 -88 0
-62 -88 0
-49 62 88 0
c gate 89 -63 -88 0
-63 -89 0
-88 -89 0
63 88 89 0
c gate 90 87 89 0
87 -90 0
89 -90 0
-87 -89 90 0
c gate 91 -63 -90 0
-63 -91 0
-90 -91 0
63 90 91 0
c gate 92 -75 -78 0
-75 -92 0
-78 -92 0
75 78 92 0
c gate 93 5 19 0
5 -93 0
19 -93 0
-5 -19 93 0
c gate 94 6 18 0
6 -94 0
18 -94 0
-6 -18 94 0
c gate 95 7 17 0
7 -95 0
17 -95 0
-7 -17 95 0
c gate 96 94 95 0
94 -96 0
95 -96 0
-94 -95 96 0
c gate 97 -94 -95 0
-94 -97 0
-95 -97 0
94 95 97 0
c gate 98 -96 -97 0
-96 -98 0
-97 -98 0
96 97 98 0
c gate 99 93 98 0
93 -99 0
98 -99 0
-93 -98 99 0
c gate 100 -93 -98 0
-93 -100 0
-98 -100 0
93 98 100 0
c gate 101 -99 -100 0
-99 -101 0
-100 -101 0
99 100 101 0
c gate 102 -54 -57 0
-54 -102 0
-57 -102 0
54 57 102 0
c gate 103 101 -102 0
101 -103 0
-102 -103 0
-101 102 103 0
c gate 104 -101 102 0
-101 -104 0
102 -104 0
101 -102 104 0
c gate 105 -103 -104 0
-103 -105 0
-104 -105 0
103 104 105 0
c gate 106 92 -105 0
92 -106 0
-105 -106 0
-92 105 106 0
c gate 107 -92 105 0
-92 -107 0
105 -107 0
92 -105 107 0
c gate 108 -106 -107 0
-106 -108 0
-107 -108 0
106 107 108 0
c gate 109 -24 -60 0
-24 -109 0
-60 -109 0
24 60 109 0
c gate 110 8 16 0
8 -110 0
16 -110 0
-8 -16 110 0
c gate 111 9 15 0
9 -111 0
15 -111 0
-9 -15 111 0
c gate 112 10 14 0
10 -112 0
14 -112 0
-10 -14 112 0
c gate 113 111 112 0
111 -113 0
112 -113 0
-111 -112 113 0
c gate 114 -111 -112 0
-111 -114 0
-112 -114 0
111 112 114 0
c gate 115 -113 -114 0
-113 -115 0
-114 -115 0
113 114 115 0
c gate 116 110 115 0
110 -116 0
115 -116 0
-110 -115 116 0
c gate 117 -110 -115 0
-110 -117 0
-115 -117 0
110 115 117 0
c gate 118 -116 -117 0
-116 -118 0
-117 -118 0
116 117 118 0
c gate 119 -109 118 0
-109 -119 0
118 -119 0
109 -118 119 0
c gate 120 109 -118 0
109 -120 0
-118 -120 0
-109 118 120 0
c gate 121 -119 -120 0
-119 -121 0
-120 -121 0
119 120 121 0
c gate 122 108 121 0
108 -122 0
121 -122 0
-108 -121 122 0
c gate 123 -108 -121 0
-108 -123 0
-121 -123 0
108 121 123 0
c gate 124 -122 -123 0
-122 -124 0
-123 -124 0
122 123 124 0
c gate 125 -91 124 0
-91 -125 0
124 -125 0
91 -124 125 0
c gate 126 -82 -86 0
-82 -126 0
-86 -126 0
82 86 126 0
c gate 127 91 -124 0
91 -127 0
-124 -127 0
-91 124 127 0
c gate 128 -125 -127 0
-125 -128 0
-127 -128 0
125 127 128 0
c gate 129 -126 128 0
-126 -129 0
128 -129 0
126 -128 129 0
c gate 130 -125 -129 0
-125 -130 0
-129 -130 0
125 129 130 0
c gate 131 -103 -107 0
-103 -131 0
-107 -131 0
103 107 131 0
c gate 132 -119 -122 0
-119 -132 0
-122 -132 0
119 122 132 0
c gate 133 10 15 0
10 -133 0
15 -133 0
-10 -15 133 0
c gate 134 9 16 0
9 -134 0
16 -134 0
-9 -16 134 0
c gate 135 133 134 0
133 -135 0
134 -135 0
-133 -134 135 0
c gate 136 -133 -134 0
-133 -136 0
-134 -136 0
133 134 136 0
c gate 137 -135 -136 0
-135 -137 0
-136 -137 0
135 136 137 0
c gate 138 -96 -99 0
-96 -138 0
-99 -138 0
96 99 138 0
c gate 139 6 19 0
6 -139 0
19 -139 0
-6 -19 139 0
c gate 140 7 18 0
7 -140 0
18 -140 0
-7 -18 140 0
c gate 141 8 17 0
8 -141 0
17 -141 0
-8 -17 141 0
c gate 142 140 141 0
140 -142 0
141 -142 0
-140 -141 142 0
c gate 143 -140 -141 0
-140 -143 0
-141 -143 0
140 141 143 0
c gate 144 -142 -143 0
-142 -144 0
-143 -144 0
142 143 144 0
c gate 145 139 144 0
139 -145 0
144 -145 0
-139 -144 145 0
c gate 146 -139 -144 0
-139 -146 0
-144 -146 0
139 144 146 0
c gate 147 -145 -146 0
-145 -147 0
-146 -147 0
145 146 147 0
c gate 148 -113 -116 0
-113 -148 0
-116 -148 0
113 116 148 0
c gate 149 147 -148 0
147 -149 0
-148 -149 0
-147 148 149 0
c gate 150 -147 148 0
-147 -150 0
148 -150 0
147 -148 150 0
c gate 151 -149 -150 0
-149 -151 0
-150 -151 0
149 150 151 0
c gate 152 138 -151 0
138 -152 0
-151 -152 0
-138 151 152 0
c gate 153 -138 151 0
-138 -153 0
151 -153 0
138 -151 153 0
c gate 154 -152 -153 0
-152 -154 0
-153 -154 0
152 153 154 0
c gate 155 137 154 0
137 -155 0
154 -155 0
-137 -154 155 0
c gate 156 -137 -154 0
-137 -156 0
-154 -156 0
137 154 156 0
c gate 157 -155 -156 0
-155 -157 0
-156 -157 0
155 156 157 0
c gate 158 -132 157 0
-132 -158 0
157 -158 0
132 -157 158 0
c gate 159 132 -157 0
132 -159 0
-157 -159 0
-132 157 159 0
c gate 160 -158 -159 0
-158 -160 0
-159 -160 0
158 159 160 0
c gate 161 -131 160 0
-131 -161 0
160 -161 0
131 -160 161 0
c gate 162 131 -160 0
131 -162 0
-160 -162 0
-131 160 162 0
c gate 163 -161 -162 0
-161 -163 0
-162 -163 0
161 162 163 0
c gate 164 -130 163 0
-130 -164 0
163 -164 0
130 -163 164 0
c gate 165 130 -163 0
130 -165 0
-163 -165 0
-130 163 165 0
c gate 166 -164 -165 0
-164 -166 0
-165 -166 0
164 165 166 0
c gate 167 21 166 0
21 -167 0
166 -167 0
-21 -166 167 0
c gate 168 -21 -166 0
-21 -168 0
-166 -168 0
21 166 168 0
c gate 169 -167 -168 0
-167 -169 0
-168 -169 0
167 168 169 0
c gate 170 8 11 0
8 -170 0
11 -170 0
-8 -11 170 0
c gate 171 7 12 0
7 -171 0
12 -171 0
-7 -12 171 0
c gate 172 170 171 0
170 -172 0
171 -172 0
-170 -171 172 0
c gate 173 6 13 0
6 -173 0
13 -173 0
-6 -13 173 0
c gate 174 -170 -171 0
-170 -174 0
-171 -174 0
170 171 174 0
c gate 175 -172 -174 0
-172 -175 0
-174 -175 0
172 174 175 0
c gate 176 173 175 0
173 -176 0
175 -176 0
-173 -175 176 0
c gate 177 -172 -176 0
-172 -177 0
-176 -177 0
172 176 177 0
c gate 178 7 13 0
7 -178 0
13 -178 0
-7 -13 178 0
c gate 179 9 11 0
9 -179 0
11 -179 0
-9 -11 179 0
c gate 180 8 12 0
8 -180 0
12 -180 0
-8 -12 180 0
c gate 181 179 180 0
179 -181 0
180 -181 0
-179 -180 181 0
c gate 182 -179 -180 0
-179 -182 0
-180 -182 0
179 180 182 0
c gate 183 -181 -182 0
-181 -183 0
-182 -183 0
181 182 183 0
c gate 184 178 183 0
178 -184 0
183 -184 0
-178 -183 184 0
c gate 185 -178 -183 0
-178 -185 0
-183 -185 0
178 183 185 0
c gate 186 -184 -185 0
-184 -186 0
-185 -186 0
184 185 186 0
c gate 187 -177 186 0
-177 -187 0
186 -187 0
177 -186 187 0
c gate 188 4 16 0
4 -188 0
16 -188 0
-4 -16 188 0
c gate 189 6 14 0
6 -189 0
14 -189 0
-6 -14 189 0
c gate 190 5 15 0
5 -190 0
15 -190 0
-5 -15 190 0
c gate 191 -189 -190 0
-189 -191 0
-190 -191 0
189 190 191 0
c gate 192 189 190 0
189 -192 0
190 -192 0
-189 -190 192 0
c gate 193 -191 -192 0
-191 -193 0
-192 -193 0
191 192 193 0
c gate 194 -188 -193 0
-188 -194 0
-193 -194 0
188 193 194 0
c gate 195 188 193 0
188 -195 0
193 -195 0
-188 -193 195 0
c gate 196 -194 -195 0
-194 -196 0
-195 -196 0
194 195 196 0
c gate 197 177 -186 0
177 -197 0
-186 -197 0
-177 186 197 0
c gate 198 -187 -197 0
-187 -198 0
-197 -198 0
187 197 198 0
c gate 199 196 198 0
196 -199 0
198 -199 0
-196 -198 199 0
c gate 200 -187 -199 0
-187 -200 0
-199 -200 0
187 199 200 0
c gate 201 5 16 0
5 -201 0
16 -201 0
-5 -16 201 0
c gate 202 7 14 0
7 -202 0
14 -202 0
-7 -14 202 0
c gate 203 6 15 0
6 -203 0
15 -203 0
-6 -15 203 0
c gate 204 -202 -203 0
-202 -204 0
-203 -204 0
202 203 204 0
c gate 205 202 203 0
202 -205 0
203 -205 0
-202 -203 205 0
c gate 206 -204 -205 0
-204 -206 0
-205 -206 0
204 205 206 0
c gate 207 -201 -206 0
-201 -207 0
-206 -207 0
201 206 207 0
c gate 208 201 206 0
201 -208 0
206 -208 0
-201 -206 208 0
c gate 209 -207 -208 0
-207 -209 0
-208 -209 0
207 208 209 0
c gate 210 -181 -184 0
-181 -210 0
-184 -210 0
181 184 210 0
c gate 211 -31 -33 0
-31 -211 0
-33 -211 0
31 33 211 0
c gate 212 -34 -211 0
-34 -212 0
-211 -212 0
34 211 212 0
c gate 213 -210 212 0
-210 -213 0
212 -213 0
210 -212 213 0
c gate 214 210 -212 0
210 -214 0
-212 -214 0
-210 212 214 0
c gate 215 -213 -214 0
-213 -215 0
-214 -215 0
213 214 215 0
c gate 216 209 215 0
209 -216 0
215 -216 0
-209 -215 216 0
c gate 217 -209 -215 0
-209 -217 0
-215 -217 0
209 215 217 0
c gate 218 -216 -217 0
-216 -218 0
-217 -218 0
216 217 218 0
c gate 219 -200 218 0
-200 -219 0
218 -219 0
200 -218 219 0
c gate 220 3 17 0
3 -220 0
17 -220 0
-3 -17 220 0
c gate 221 2 18 0
2 -221 0
18 -221 0
-2 -18 221 0
c gate 222 220 221 0
220 -222 0
221 -222 0
-220 -221 222 0
c gate 223 1 19 0
1 -223 0
19 -223 0
-1 -19 223 0
c gate 224 -220 -221 0
-220 -224 0
-221 -224 0
220 221 224 0
c gate 225 -222 -224 0
-222 -225 0
-224 -225 0
222 224 225 0
c gate 226 223 225 0
223 -226 0
225 -226 0
-223 -225 226 0
c gate 227 -222 -226 0
-222 -227 0
-226 -227 0
222 226 227 0
c gate 228 2 19 0
2 -228 0
19 -228 0
-2 -19 228 0
c gate 229 4 17 0
4 -229 0
17 -229 0
-4 -17 229 0
c gate 230 3 18 0
3 -230 0
18 -230 0
-3 -18 230 0
c gate 231 229 230 0
229 -231 0
230 -231 0
-229 -230 231 0
c gate 232 -229 -230 0
-229 -232 0
-230 -232 0
229 230 232 0
c gate 233 -231 -232 0
-231 -233 0
-232 -233 0
231 232 233 0
c gate 234 228 233 0
228 -234 0
233 -234 0
-228 -233 234 0
c gate 235 -228 -233 0
-228 -235 0
-233 -235 0
228 233 235 0
c gate 236 -234 -235 0
-234 -236 0
-235 -236 0
234 235 236 0
c gate 237 -192 -195 0
-192 -237 0
-195 -237 0
192 195 237 0
c gate 238 236 -237 0
236 -238 0
-237 -238 0
-236 237 238 0
c gate 239 -236 237 0
-236 -239 0
237 -239 0
236 -237 239 0
c gate 240 -238 -239 0
-238 -240 0
-239 -240 0
238 239 240 0
c gate 241 227 -240 0
227 -241 0
-240 -241 0
-227 240 241 0
c gate 242 -227 240 0
-227 -242 0
240 -242 0
227 -240 242 0
c gate 243 -241 -242 0
-241 -243 0
-242 -243 0
241 242 243 0
c gate 244 200 -218 0
200 -244 0
-218 -244 0
-200 218 244 0
c gate 245 -219 -244 0
-219 -245 0
-244 -245 0
219 244 245 0
c gate 246 243 245 0
243 -246 0
245 -246 0
-243 -245 246 0
c gate 247 -219 -246 0
-219 -247 0
-246 -247 0
219 246 247 0
c gate 248 -231 -234 0
-231 -248 0
-234 -248 0
231 234 248 0
c gate 249 -67 -69 0
-67 -249 0
-69 -249 0
67 69 249 0
c gate 250 -70 -249 0
-70 -250 0
-249 -250 0
70 249 250 0
c gate 251 -205 -208 0
-205 -251 0
-208 -251 0
205 208 251 0
c gate 252 250 -251 0
250 -252 0
-251 -252 0
-250 251 252 0
c gate 253 -250 251 0
-250 -253 0
251 -253 0
250 -251 253 0
c gate 254 -252 -253 0
-252 -254 0
-253 -254 0
252 253 254 0
c gate 255 248 -254 0
248 -255 0
-254 -255 0
-248 254 255 0
c gate 256 -248 254 0
-248 -256 0
254 -256 0
248 -254 256 0
c gate 257 -255 -256 0
-255 -257 0
-256 -257 0
255 256 257 0
c gate 258 -213 -216 0
-213 -258 0
-216 -258 0
213 216 258 0
c gate 259 -45 -47 0
-45 -259 0
-47 -259 0
45 47 259 0
c gate 260 -48 -259 0
-48 -260 0
-259 -260 0
48 259 260 0
c gate 261 -258 260 0
-258 -261 0
260 -261 0
258 -260 261 0
c gate 262 258 -260 0
258 -262 0
-260 -262 0
-258 260 262 0
c gate 263 -261 -262 0
-261 -263 0
-262 -263 0
261 262 263 0
c gate 264 257 263 0
257 -264 0
263 -264 0
-257 -263 264 0
c gate 265 -257 -263 0
-257 -265 0
-263 -265 0
257 263 265 0
c gate 266 -264 -265 0
-264 -266 0
-265 -266 0
264 265 266 0
c gate 267 -247 266 0
-247 -267 0
266 -267 0
247 -266 267 0
c gate 268 -238 -242 0
-238 -268 0
-242 -268 0
238 242 268 0
c gate 269 247 -266 0
247 -269 0
-266 -269 0
-247 266 269 0
c gate 270 -267 -269 0
-267 -270 0
-269 -270 0
267 269 270 0
c gate 271 -268 270 0
-268 -271 0
270 -271 0
268 -270 271 0
c gate 272 -267 -271 0
-267 -272 0
-271 -272 0
267 271 272 0
c gate 273 -252 -256 0
-252 -273 0
-256 -273 0
252 256 273 0
c gate 274 -261 -264 0
-261 -274 0
-264 -274 0
261 264 274 0
c gate 275 -87 -89 0
-87 -275 0
-89 -275 0
87 89 275 0
c gate 276 -90 -275 0
-90 -276 0
-275 -276 0
90 275 276 0
c gate 277 -274 276 0
-274 -277 0
276 -277 0
274 -276 277 0
c gate 278 274 -276 0
274 -278 0
-276 -278 0
-274 276 278 0
c gate 279 -277 -278 0
-277 -279 0
-278 -279 0
277 278 279 0
c gate 280 -273 279 0
-273 -280 0
279 -280 0
273 -279 280 0
c gate 281 273 -279 0
273 -281 0
-279 -281 0
-273 279 281 0
c gate 282 -280 -281 0
-280 -282 0
-281 -282 0
280 281 282 0
c gate 283 -272 282 0
-272 -283 0
282 -283 0
272 -282 283 0
c gate 284 3 20 0
3 -284 0
20 -284 0
-3 -20 284 0
c gate 285 272 -282 0
272 -285 0
-282 -285 0
-272 282 285 0
c gate 286 -283 -285 0
-283 -286 0
-285 -286 0
283 285 286 0
c gate 287 284 286 0
284 -287 0
286 -287 0
-284 -286 287 0
c gate 288 -283 -287 0
-283 -288 0
-287 -288 0
283 287 288 0
c gate 289 4 20 0
4 -289 0
20 -289 0
-4 -20 289 0
c gate 290 -277 -280 0
-277 -290 0
-280 -290 0
277 280 290 0
c gate 291 126 -128 0
126 -291 0
-128 -291 0
-126 128 291 0
c gate 292 -129 -291 0
-129 -292 0
-291 -292 0
129 291 292 0
c gate 293 -290 292 0
-290 -293 0
292 -293 0
290 -292 293 0
c gate 294 290 -292 0
290 -294 0
-292 -294 0
-290 292 294 0
c gate 295 -293 -294 0
-293 -295 0
-294 -295 0
293 294 295 0
c gate 296 289 295 0
289 -296 0
295 -296 0
-289 -295 296 0
c gate 297 -289 -295 0
-289 -297 0
-295 -297 0
289 295 297 0
c gate 298 -296 -297 0
-296 -298 0
-297 -298 0
296 297 298 0
c gate 299 -288 298 0
-288 -299 0
298 -299 0
288 -298 299 0
c gate 300 -284 -286 0
-284 -300 0
-286 -300 0
284 286 300 0
c gate 301 -287 -300 0
-287 -301 0
-300 -301 0
287 300 301 0
c gate 302 2 20 0
2 -302 0
20 -302 0
-2 -20 302 0
c gate 303 7 11 0
7 -303 0
11 -303 0
-7 -11 303 0
c gate 304 6 12 0
6 -304 0
12 -304 0
-6 -12 304 0
c gate 305 303 304 0
303 -305 0
304 -305 0
-303 -304 305 0
c gate 306 -303 -304 0
-303 -306 0
-304 -306 0
303 304 306 0
c gate 307 -305 -306 0
-305 -307 0
-306 -307 0
305 306 307 0
c gate 308 5 13 0
5 -308 0
13 -308 0
-5 -13 308 0
c gate 309 307 308 0
307 -309 0
308 -309 0
-307 -308 309 0
c gate 310 -305 -309 0
-305 -310 0
-309 -310 0
305 309 310 0
c gate 311 -173 -175 0
-173 -311 0
-175 -311 0
173 175 311 0
c gate 312 -176 -311 0
-176 -312 0
-311 -312 0
176 311 312 0
c gate 313 -310 312 0
-310 -313 0
312 -313 0
310 -312 313 0
c gate 314 3 16 0
3 -314 0
16 -314 0
-3 -16 314 0
c gate 315 5 14 0
5 -315 0
14 -315 0
-5 -14 315 0
c gate 316 4 15 0
4 -316 0
15 -316 0
-4 -15 316 0
c gate 317 -315 -316 0
-315 -317 0
-316 -317 0
315 316 317 0
c gate 318 315 316 0
315 -318 0
316 -318 0
-315 -316 318 0
c gate 319 -317 -318 0
-317 -319 0
-318 -319 0
317 318 319 0
c gate 320 -314 -319 0
-314 -320 0
-319 -320 0
314 319 320 0
c gate 321 314 319 0
314 -321 0
319 -321 0
-314 -319 321 0
c gate 322 -320 -321 0
-320 -322 0
-321 -322 0
320 321 322 0
c gate 323 310 -312 0
310 -323 0
-312 -323 0
-310 312 323 0
c gate 324 -313 -323 0
-313 -324 0
-323 -324 0
313 323 324 0
c gate 325 322 324 0
322 -325 0
324 -325 0
-322 -324 325 0
c gate 326 -313 -325 0
-313 -326 0
-325 -326 0
313 325 326 0
c gate 327 -196 -198 0
-196 -327 0
-198 -327 0
196 198 327 0
c gate 328 -199 -327 0
-199 -328 0
-327 -328 0
199 327 328 0
c gate 329 -326 328 0
-326 -329 0
328 -329 0
326 -328 329 0
c gate 330 -223 -225 0
-223 -330 0
-225 -330 0
223 225 330 0
c gate 331 -226 -330 0
-226 -331 0
-330 -331 0
226 330 331 0
c gate 332 -318 -321 0
-318 -332 0
-321 -332 0
318 321 332 0
c gate 333 331 -332 0
331 -333 0
-332 -333 0
-331 332 333 0
c gate 334 -331 332 0
-331 -334 0
332 -334 0
331 -332 334 0
c gate 335 -333 -334 0
-333 -335 0
-334 -335 0
333 334 335 0
c gate 336 2 17 0
2 -336 0
17 -336 0
-2 -17 336 0
c gate 337 1 18 0
1 -337 0
18 -337 0
-1 -18 337 0
c gate 338 336 337 0
336 -338 0
337 -338 0
-336 -337 338 0
c gate 339 -335 -338 0
-335 -339 0
-338 -339 0
335 338 339 0
c gate 340 335 338 0
335 -340 0
338 -340 0
-335 -338 340 0
c gate 341 -339 -340 0
-339 -341 0
-340 -341 0
339 340 341 0
c gate 342 326 -328 0
326 -342 0
-328 -342 0
-326 328 342 0
c gate 343 -329 -342 0
-329 -343 0
-342 -343 0
329 342 343 0
c gate 344 341 343 0
341 -344 0
343 -344 0
-341 -343 344 0
c gate 345 -329 -344 0
-329 -345 0
-344 -345 0
329 344 345 0
c gate 346 -243 -245 0
-243 -346 0
-245 -346 0
243 245 346 0
c gate 347 -246 -346 0
-246 -347 0
-346 -347 0
246 346 347 0
c gate 348 -345 347 0
-345 -348 0
347 -348 0
345 -347 348 0
c gate 349 -333 -340 0
-333 -349 0
-340 -349 0
333 340 349 0
c gate 350 345 -347 0
345 -350 0
-347 -350 0
-345 347 350 0
c gate 351 -348 -350 0
-348 -351 0
-350 -351 0
348 350 351 0
c gate 352 -349 351 0
-349 -352 0
351 -352 0
349 -351 352 0
c gate 353 -348 -352 0
-348 -353 0
-352 -353 0
348 352 353 0
c gate 354 268 -270 0
268 -354 0
-270 -354 0
-268 270 354 0
c gate 355 -271 -354 0
-271 -355 0
-354 -355 0
271 354 355 0
c gate 356 -353 355 0
-353 -356 0
355 -356 0
353 -355 356 0
c gate 357 353 -355 0
353 -357 0
-355 -357 0
-353 355 357 0
c gate 358 -356 -357 0
-356 -358 0
-357 -358 0
356 357 358 0
c gate 359 302 358 0
302 -359 0
358 -359 0
-302 -358 359 0
c gate 360 -302 -358 0
-302 -360 0
-358 -360 0
302 358 360 0
c gate 361 -359 -360 0
-359 -361 0
-360 -361 0
359 360 361 0
c gate 362 6 11 0
6 -362 0
11 -362 0
-6 -11 362 0
c gate 363 5 12 0
5 -363 0
12 -363 0
-5 -12 363 0
c gate 364 362 363 0
362 -364 0
363 -364 0
-362 -363 364 0
c gate 365 4 13 0
4 -365 0
13 -365 0
-4 -13 365 0
c gate 366 -362 -363 0
-362 -366 0
-363 -366 0
362 363 366 0
c gate 367 -364 -366 0
-364 -367 0
-366 -367 0
364 366 367 0
c gate 368 365 367 0
365 -368 0
367 -368 0
-365 -367 368 0
c gate 369 -364 -368 0
-364 -369 0
-368 -369 0
364 368 369 0
c gate 370 -307 -308 0
-307 -370 0
-308 -370 0
307 308 370 0
c gate 371 -309 -370 0
-309 -371 0
-370 -371 0
309 370 371 0
c gate 372 -369 371 0
-369 -372 0
371 -372 0
369 -371 372 0
c gate 373 369 -371 0
369 -373 0
-371 -373 0
-369 371 373 0
c gate 374 -372 -373 0
-372 -374 0
-373 -374 0
372 373 374 0
c gate 375 2 16 0
2 -375 0
16 -375 0
-2 -16 375 0
c gate 376 4 14 0
4 -376 0
14 -376 0
-4 -14 376 0
c gate 377 3 15 0
3 -377 0
15 -377 0
-3 -15 377 0
c gate 378 -376 -377 0
-376 -378 0
-377 -378 0
376 377 378 0
c gate 379 376 377 0
376 -379 0
377 -379 0
-376 -377 379 0
c gate 380 -378 -379 0
-378 -380 0
-379 -380 0
378 379 380 0
c gate 381 375 380 0
375 -381 0
380 -381 0
-375 -380 381 0
c gate 382 -375 -380 0
-375 -382 0
-380 -382 0
375 380 382 0
c gate 383 -381 -382 0
-381 -383 0
-382 -383 0
381 382 383 0
c gate 384 374 383 0
374 -384 0
383 -384 0
-374 -383 384 0
c gate 385 -372 -384 0
-372 -385 0
-384 -385 0
372 384 385 0
c gate 386 -322 -324 0
-322 -386 0
-324 -386 0
322 324 386 0
c gate 387 -325 -386 0
-325 -387 0
-386 -387 0
325 386 387 0
c gate 388 -385 387 0
-385 -388 0
387 -388 0
385 -387 388 0
c gate 389 -336 -337 0
-336 -389 0
-337 -389 0
336 337 389 0
c gate 390 -338 -389 0
-338 -390 0
-389 -390 0
338 389 390 0
c gate 391 -379 -381 0
-379 -391 0
-381 -391 0
379 381 391 0
c gate 392 -390 391 0
-390 -392 0
391 -392 0
390 -391 392 0
c gate 393 390 -391 0
390 -393 0
-391 -393 0
-390 391 393 0
c gate 394 -392 -393 0
-392 -394 0
-393 -394 0
392 393 394 0
c gate 395 385 -387 0
385 -395 0
-387 -395 0
-385 387 395 0
c gate 396 -388 -395 0
-388 -396 0
-395 -396 0
388 395 396 0
c gate 397 394 396 0
394 -397 0
396 -397 0
-394 -396 397 0
c gate 398 -388 -397 0
-388 -398 0
-397 -398 0
388 397 398 0
c gate 399 -341 -343 0
-341 -399 0
-343 -399 0
341 343 399 0
c gate 400 -344 -399 0
-344 -400 0
-399 -400 0
344 399 400 0
c gate 401 -398 400 0
-398 -401 0
400 -401 0
398 -400 401 0
c gate 402 398 -400 0
398 -402 0
-400 -402 0
-398 400 402 0
c gate 403 -401 -402 0
-401 -403 0
-402 -403 0
401 402 403 0
c gate 404 393 403 0
393 -404 0
403 -404 0
-393 -403 404 0
c gate 405 -401 -404 0
-401 -405 0
-404 -405 0
401 404 405 0
c gate 406 349 -351 0
349 -406 0
-351 -406 0
-349 351 406 0
c gate 407 -352 -406 0
-352 -407 0
-406 -407 0
352 406 407 0
c gate 408 -405 407 0
-405 -408 0
407 -408 0
405 -407 408 0
c gate 409 -361 -408 0
-361 -409 0
-408 -409 0
361 408 409 0
c gate 410 1 20 0
1 -410 0
20 -410 0
-1 -20 410 0
c gate 411 405 -407 0
405 -411 0
-407 -411 0
-405 407 411 0
c gate 412 -408 -411 0
-408 -412 0
-411 -412 0
408 411 412 0
c gate 413 -410 -412 0
-410 -413 0
-412 -413 0
410 412 413 0
c gate 414 5 11 0
5 -414 0
11 -414 0
-5 -11 414 0
c gate 415 4 12 0
4 -415 0
12 -415 0
-4 -12 415 0
c gate 416 414 415 0
414 -416 0
415 -416 0
-414 -415 416 0
c gate 417 -414 -415 0
-414 -417 0
-415 -417 0
414 415 417 0
c gate 418 -416 -417 0
-416 -418 0
-417 -418 0
416 417 418 0
c gate 419 3 13 0
3 -419 0
13 -419 0
-3 -13 419 0
c gate 420 418 419 0
418 -420 0
419 -420 0
-418 -419 420 0
c gate 421 -416 -420 0
-416 -421 0
-420 -421 0
416 420 421 0
c gate 422 -365 -367 0
-365 -422 0
-367 -422 0
365 367 422 0
c gate 423 -368 -422 0
-368 -423 0
-422 -423 0
368 422 423 0
c gate 424 -421 423 0
-421 -424 0
423 -424 0
421 -423 424 0
c gate 425 1 16 0
1 -425 0
16 -425 0
-1 -16 425 0
c gate 426 3 14 0
3 -426 0
14 -426 0
-3 -14 426 0
c gate 427 2 15 0
2 -427 0
15 -427 0
-2 -15 427 0
c gate 428 -426 -427 0
-426 -428 0
-427 -428 0
426 427 428 0
c gate 429 426 427 0
426 -429 0
427 -429 0
-426 -427 429 0
c gate 430 -428 -429 0
-428 -430 0
-429 -430 0
428 429 430 0
c gate 431 425 430 0
425 -431 0
430 -431 0
-425 -430 431 0
c gate 432 -425 -430 0
-425 -432 0
-430 -432 0
425 430 432 0
c gate 433 -431 -432 0
-431 -433 0
-432 -433 0
431 432 433 0
c gate 434 421 -423 0
421 -434 0
-423 -434 0
-421 423 434 0
c gate 435 -424 -434 0
-424 -435 0
-434 -435 0
424 434 435 0
c gate 436 433 435 0
433 -436 0
435 -436 0
-433 -435 436 0
c gate 437 -424 -436 0
-424 -437 0
-436 -437 0
424 436 437 0
c gate 438 -374 -383 0
-374 -438 0
-383 -438 0
374 383 438 0
c gate 439 -384 -438 0
-384 -439 0
-438 -439 0
384 438 439 0
c gate 440 -437 439 0
-437 -440 0
439 -440 0
437 -439 440 0
c gate 441 437 -439 0
437 -441 0
-439 -441 0
-437 439 441 0
c gate 442 -440 -441 0
-440 -442 0
-441 -442 0
440 441 442 0
c gate 443 1 17 0
1 -443 0
17 -443 0
-1 -17 443 0
c gate 444 -429 -431 0
-429 -444 0
-431 -444 0
429 431 444 0
c gate 445 443 -444 0
443 -445 0
-444 -445 0
-443 444 445 0
c gate 446 -443 444 0
-443 -446 0
444 -446 0
443 -444 446 0
c gate 447 -445 -446 0
-445 -447 0
-446 -447 0
445 446 447 0
c gate 448 442 447 0
442 -448 0
447 -448 0
-442 -447 448 0
c gate 449 -440 -448 0
-440 -449 0
-448 -449 0
440 448 449 0
c gate 450 -394 -396 0
-394 -450 0
-396 -450 0
394 396 450 0
c gate 451 -397 -450 0
-397 -451 0
-450 -451 0
397 450 451 0
c gate 452 -449 451 0
-449 -452 0
451 -452 0
449 -451 452 0
c gate 453 449 -451 0
449 -453 0
-451 -453 0
-449 451 453 0
c gate 454 -452 -453 0
-452 -454 0
-453 -454 0
452 453 454 0
c gate 455 445 454 0
445 -455 0
454 -455 0
-445 -454 455 0
c gate 456 -452 -455 0
-452 -456 0
-455 -456 0
452 455 456 0
c gate 457 -393 -403 0
-393 -457 0
-403 -457 0
393 403 457 0
c gate 458 -404 -457 0
-404 -458 0
-457 -458 0
404 457 458 0
c gate 459 456 -458 0
456 -459 0
-458 -459 0
-456 458 459 0
c gate 460 -445 -454 0
-445 -460 0
-454 -460 0
445 454 460 0
c gate 461 -455 -460 0
-455 -461 0
-460 -461 0
455 460 461 0
c gate 462 -442 -447 0
-442 -462 0
-447 -462 0
442 447 462 0
c gate 463 -448 -462 0
-448 -463 0
-462 -463 0
448 462 463 0
c gate 464 4 11 0
4 -464 0
11 -464 0
-4 -11 464 0
c gate 465 3 12 0
3 -465 0
12 -465 0
-3 -12 465 0
c gate 466 464 465 0
464 -466 0
465 -466 0
-464 -465 466 0
c gate 467 -464 -465 0
-464 -467 0
-465 -467 0
464 465 467 0
c gate 468 -466 -467 0
-466 -468 0
-467 -468 0
466 467 468 0
c gate 469 2 13 0
2 -469 0
13 -469 0
-2 -13 469 0
c gate 470 468 469 0
468 -470 0
469 -470 0
-468 -469 470 0
c gate 471 -466 -470 0
-466 -471 0
-470 -471 0
466 470 471 0
c gate 472 -418 -419 0
-418 -472 0
-419 -472 0
418 419 472 0
c gate 473 -420 -472 0
-420 -473 0
-472 -473 0
420 472 473 0
c gate 474 -471 473 0
-471 -474 0
473 -474 0
471 -473 474 0
c gate 475 2 14 0
2 -475 0
14 -475 0
-2 -14 475 0
c gate 476 1 15 0
1 -476 0
15 -476 0
-1 -15 476 0
c gate 477 -475 -476 0
-475 -477 0
-476 -477 0
475 476 477 0
c gate 478 475 476 0
475 -478 0
476 -478 0
-475 -476 478 0
c gate 479 -477 -478 0
-477 -479 0
-478 -479 0
477 478 479 0
c gate 480 471 -473 0
471 -480 0
-473 -480 0
-471 473 480 0
c gate 481 -474 -480 0
-474 -481 0
-480 -481 0
474 480 481 0
c gate 482 479 481 0
479 -482 0
481 -482 0
-479 -481 482 0
c gate 483 -474 -482 0
-474 -483 0
-482 -483 0
474 482 483 0
c gate 484 -433 -435 0
-433 -484 0
-435 -484 0
433 435 484 0
c gate 485 -436 -484 0
-436 -485 0
-484 -485 0
436 484 485 0
c gate 486 483 -485 0
483 -486 0
-485 -486 0
-483 485 486 0
c gate 487 -483 485 0
-483 -487 0
485 -487 0
483 -485 487 0
c gate 488 -478 -487 0
-478 -488 0
-487 -488 0
478 487 488 0
c gate 489 -486 -488 0
-486 -489 0
-488 -489 0
486 488 489 0
c gate 490 463 489 0
463 -490 0
489 -490 0
-463 -489 490 0
c gate 491 461 490 0
461 -491 0
490 -491 0
-461 -490 491 0
c gate 492 459 -491 0
459 -492 0
-491 -492 0
-459 491 492 0
c gate 493 -448 -489 0
-448 -493 0
-489 -493 0
448 489 493 0
c gate 494 -463 487 0
-463 -494 0
487 -494 0
463 -487 494 0
c gate 495 -493 -494 0
-493 -495 0
-494 -495 0
493 494 495 0
c gate 496 462 -487 0
462 -496 0
-487 -496 0
-462 487 496 0
c gate 497 -479 -481 0
-479 -497 0
-481 -497 0
479 481 497 0
c gate 498 -482 -497 0
-482 -498 0
-497 -498 0
482 497 498 0
c gate 499 1 14 0
1 -499 0
14 -499 0
-1 -14 499 0
c gate 500 -468 -469 0
-468 -500 0
-469 -500 0
468 469 500 0
c gate 501 -470 -500 0
-470 -501 0
-500 -501 0
470 500 501 0
c gate 502 3 11 0
3 -502 0
11 -502 0
-3 -11 502 0
c gate 503 2 12 0
2 -503 0
12 -503 0
-2 -12 503 0
c gate 504 502 503 0
502 -504 0
503 -504 0
-502 -503 504 0
c gate 505 -502 -503 0
-502 -505 0
-503 -505 0
502 503 505 0
c gate 506 1 13 0
1 -506 0
13 -506 0
-1 -13 506 0
c gate 507 -505 506 0
-505 -507 0
506 -507 0
505 -506 507 0
c gate 508 -504 -507 0
-504 -508 0
-507 -508 0
504 507 508 0
c gate 509 501 -508 0
501 -509 0
-508 -509 0
-501 508 509 0
c gate 510 -501 508 0
-501 -510 0
508 -510 0
501 -508 510 0
c gate 511 -509 -510 0
-509 -511 0
-510 -511 0
509 510 511 0
c gate 512 -499 -511 0
-499 -512 0
-511 -512 0
499 511 512 0
c gate 513 499 511 0
499 -513 0
511 -513 0
-499 -511 513 0
c gate 514 -3 -13 0
-3 -514 0
-13 -514 0
3 13 514 0
c gate 515 -419 -514 0
-419 -515 0
-514 -515 0
419 514 515 0
c gate 516 1 11 0
1 -516 0
11 -516 0
-1 -11 516 0
c gate 517 503 516 0
503 -517 0
516 -517 0
-503 -516 517 0
c gate 518 -515 517 0
-515 -518 0
517 -518 0
515 -517 518 0
c gate 519 -513 518 0
-513 -519 0
518 -519 0
513 -518 519 0
c gate 520 -512 519 0
-512 -520 0
519 -520 0
512 -519 520 0
c gate 521 498 520 0
498 -521 0
520 -521 0
-498 -520 521 0
c gate 522 -509 -513 0
-509 -522 0
-513 -522 0
509 513 522 0
c gate 523 -521 522 0
-521 -523 0
522 -523 0
521 -522 523 0
c gate 524 -498 -520 0
-498 -524 0
-520 -524 0
498 520 524 0
c gate 525 -486 -487 0
-486 -525 0
-487 -525 0
486 487 525 0
c gate 526 -478 -525 0
-478 -526 0
-525 -526 0
478 525 526 0
c gate 527 -524 -526 0
-524 -527 0
-526 -527 0
524 526 527 0
c gate 528 -523 527 0
-523 -528 0
527 -528 0
523 -527 528 0
c gate 529 -496 528 0
-496 -529 0
528 -529 0
496 -528 529 0
c gate 530 -495 529 0
-495 -530 0
529 -530 0
495 -529 530 0
c gate 531 461 530 0
461 -531 0
530 -531 0
-461 -530 531 0
c gate 532 -492 531 0
-492 -532 0
531 -532 0
492 -531 532 0
c gate 533 -456 458 0
-456 -533 0
458 -533 0
456 -458 533 0
c gate 534 -459 491 0
-459 -534 0
491 -534 0
459 -491 534 0
c gate 535 -533 -534 0
-533 -535 0
-534 -535 0
533 534 535 0
c gate 536 -532 535 0
-532 -536 0
535 -536 0
532 -535 536 0
c gate 537 -413 -536 0
-413 -537 0
-536 -537 0
413 536 537 0
c gate 538 -409 537 0
-409 -538 0
537 -538 0
409 -537 538 0
c gate 539 -408 -410 0
-408 -539 0
-410 -539 0
408 410 539 0
c gate 540 -411 -539 0
-411 -540 0
-539 -540 0
411 539 540 0
c gate 541 361 540 0
361 -541 0
540 -541 0
-361 -540 541 0
c gate 542 -538 -541 0
-538 -542 0
-541 -542 0
538 541 542 0
c gate 543 301 -542 0
301 -543 0
-542 -543 0
-301 542 543 0
c gate 544 -356 -359 0
-356 -544 0
-359 -544 0
356 359 544 0
c gate 545 -543 544 0
-543 -545 0
544 -545 0
543 -544 545 0
c gate 546 288 -298 0
288 -546 0
-298 -546 0
-288 298 546 0
c gate 547 -301 542 0
-301 -547 0
542 -547 0
301 -542 547 0
c gate 548 -546 -547 0
-546 -548 0
-547 -548 0
546 547 548 0
c gate 549 -545 548 0
-545 -549 0
548 -549 0
545 -548 549 0
c gate 550 -299 -549 0
-299 -550 0
-549 -550 0
299 549 550 0
c gate 551 169 -550 0
169 -551 0
-550 -551 0
-169 550 551 0
c gate 552 -293 -296 0
-293 -552 0
-296 -552 0
293 296 552 0
c gate 553 -551 552 0
-551 -553 0
552 -553 0
551 -552 553 0
c gate 554 -164 -167 0
-164 -554 0
-167 -554 0
164 167 554 0
c gate 555 6 20 0
6 -555 0
20 -555 0
-6 -20 555 0
c gate 556 -158 -161 0
-158 -556 0
-161 -556 0
158 161 556 0
c gate 557 -149 -153 0
-149 -557 0
-153 -557 0
149 153 557 0
c gate 558 10 16 0
10 -558 0
16 -558 0
-10 -16 558 0
c gate 559 -142 -145 0
-142 -559 0
-145 -559 0
142 145 559 0
c gate 560 7 19 0
7 -560 0
19 -560 0
-7 -19 560 0
c gate 561 8 18 0
8 -561 0
18 -561 0
-8 -18 561 0
c gate 562 9 17 0
9 -562 0
17 -562 0
-9 -17 562 0
c gate 563 -561 -562 0
-561 -563 0
-562 -563 0
561 562 563 0
c gate 564 561 562 0
561 -564 0
562 -564 0
-561 -562 564 0
c gate 565 -563 -564 0
-563 -565 0
-564 -565 0
563 564 565 0
c gate 566 560 565 0
560 -566 0
565 -566 0
-560 -565 566 0
c gate 567 -560 -565 0
-560 -567 0
-565 -567 0
560 565 567 0
c gate 568 -566 -567 0
-566 -568 0
-567 -568 0
566 567 568 0
c gate 569 135 568 0
135 -569 0
568 -569 0
-135 -568 569 0
c gate 570 -135 -568 0
-135 -570 0
-568 -570 0
135 568 570 0
c gate 571 -569 -570 0
-569 -571 0
-570 -571 0
569 570 571 0
c gate 572 559 -571 0
559 -572 0
-571 -572 0
-559 571 572 0
c gate 573 -559 571 0
-559 -573 0
571 -573 0
559 -571 573 0
c gate 574 -572 -573 0
-572 -574 0
-573 -574 0
572 573 574 0
c gate 575 558 574 0
558 -575 0
574 -575 0
-558 -574 575 0
c gate 576 -558 -574 0
-558 -576 0
-574 -576 0
558 574 576 0
c gate 577 -575 -576 0
-575 -577 0
-576 -577 0
575 576 577 0
c gate 578 155 577 0
155 -578 0
577 -578 0
-155 -577 578 0
c gate 579 -155 -577 0
-155 -579 0
-577 -579 0
155 577 579 0
c gate 580 -578 -579 0
-578 -580 0
-579 -580 0
578 579 580 0
c gate 581 -557 580 0
-557 -581 0
580 -581 0
557 -580 581 0
c gate 582 557 -580 0
557 -582 0
-580 -582 0
-557 580 582 0
c gate 583 -581 -582 0
-581 -583 0
-582 -583 0
581 582 583 0
c gate 584 -556 583 0
-556 -584 0
583 -584 0
556 -583 584 0
c gate 585 556 -583 0
556 -585 0
-583 -585 0
-556 583 585 0
c gate 586 -584 -585 0
-584 -586 0
-585 -586 0
584 585 586 0
c gate 587 555 586 0
555 -587 0
586 -587 0
-555 -586 587 0
c gate 588 -555 -586 0
-555 -588 0
-586 -588 0
555 586 588 0
c gate 589 -587 -588 0
-587 -589 0
-588 -589 0
587 588 589 0
c gate 590 554 -589 0
554 -590 0
-589 -590 0
-554 589 590 0
c gate 591 -169 550 0
-169 -591 0
550 -591 0
169 -550 591 0
c gate 592 -590 -591 0
-590 -592 0
-591 -592 0
590 591 592 0
c gate 593 -553 592 0
-553 -593 0
592 -593 0
553 -592 593 0
c gate 594 7 20 0
7 -594 0
20 -594 0
-7 -20 594 0
c gate 595 -578 -581 0
-578 -595 0
-581 -595 0
578 581 595 0
c gate 596 -569 -573 0
-569 -596 0
-573 -596 0
569 573 596 0
c gate 597 -564 -566 0
-564 -597 0
-566 -597 0
564 566 597 0
c gate 598 8 19 0
8 -598 0
19 -598 0
-8 -19 598 0
c gate 599 9 18 0
9 -599 0
18 -599 0
-9 -18 599 0
c gate 600 10 17 0
10 -600 0
17 -600 0
-10 -17 600 0
c gate 601 -599 -600 0
-599 -601 0
-600 -601 0
599 600 601 0
c gate 602 599 600 0
599 -602 0
600 -602 0
-599 -600 602 0
c gate 603 -601 -602 0
-601 -603 0
-602 -603 0
601 602 603 0
c gate 604 598 603 0
598 -604 0
603 -604 0
-598 -603 604 0
c gate 605 -598 -603 0
-598 -605 0
-603 -605 0
598 603 605 0
c gate 606 -604 -605 0
-604 -606 0
-605 -606 0
604 605 606 0
c gate 607 -597 606 0
-597 -607 0
606 -607 0
597 -606 607 0
c gate 608 597 -606 0
597 -608 0
-606 -608 0
-597 606 608 0
c gate 609 -607 -608 0
-607 -609 0
-608 -609 0
607 608 609 0
c gate 610 575 609 0
575 -610 0
609 -610 0
-575 -609 610 0
c gate 611 -575 -609 0
-575 -611 0
-609 -611 0
575 609 611 0
c gate 612 -610 -611 0
-610 -612 0
-611 -612 0
610 611 612 0
c gate 613 -596 612 0
-596 -613 0
612 -613 0
596 -612 613 0
c gate 614 596 -612 0
596 -614 0
-612 -614 0
-596 612 614 0
c gate 615 -613 -614 0
-613 -615 0
-614 -615 0
613 614 615 0
c gate 616 -595 615 0
-595 -616 0
615 -616 0
595 -615 616 0
c gate 617 595 -615 0
595 -617 0
-615 -617 0
-595 615 617 0
c gate 618 -616 -617 0
-616 -618 0
-617 -618 0
616 617 618 0
c gate 619 594 618 0
594 -619 0
618 -619 0
-594 -618 619 0
c gate 620 -594 -618 0
-594 -620 0
-618 -620 0
594 618 620 0
c gate 621 -619 -620 0
-619 -621 0
-620 -621 0
619 620 621 0
c gate 622 -584 -587 0
-584 -622 0
-587 -622 0
584 587 622 0
c gate 623 621 -622 0
621 -623 0
-622 -623 0
-621 622 623 0
c gate 624 -554 589 0
-554 -624 0
589 -624 0
554 -589 624 0
c gate 625 -623 -624 0
-623 -625 0
-624 -625 0
623 624 625 0
c gate 626 -593 625 0
-593 -626 0
625 -626 0
593 -625 626 0
c gate 627 -621 622 0
-621 -627 0
622 -627 0
621 -622 627 0
c gate 628 -616 -619 0
-616 -628 0
-619 -628 0
616 619 628 0
c gate 629 8 20 0
8 -629 0
20 -629 0
-8 -20 629 0
c gate 630 -610 -613 0
-610 -630 0
-613 -630 0
610 613 630 0
c gate 631 -602 -604 0
-602 -631 0
-604 -631 0
602 604 631 0
c gate 632 10 18 0
10 -632 0
18 -632 0
-10 -18 632 0
c gate 633 9 19 0
9 -633 0
19 -633 0
-9 -19 633 0
c gate 634 632 -633 0
632 -634 0
-633 -634 0
-632 633 634 0
c gate 635 -632 633 0
-632 -635 0
633 -635 0
632 -633 635 0
c gate 636 -634 -635 0
-634 -636 0
-635 -636 0
634 635 636 0
c gate 637 -631 -636 0
-631 -637 0
-636 -637 0
631 636 637 0
c gate 638 631 636 0
631 -638 0
636 -638 0
-631 -636 638 0
c gate 639 -637 -638 0
-637 -639 0
-638 -639 0
637 638 639 0
c gate 640 607 639 0
607 -640 0
639 -640 0
-607 -639 640 0
c gate 641 -607 -639 0
-607 -641 0
-639 -641 0
607 639 641 0
c gate 642 -640 -641 0
-640 -642 0
-641 -642 0
640 641 642 0
c gate 643 -630 642 0
-630 -643 0
642 -643 0
630 -642 643 0
c gate 644 630 -642 0
630 -644 0
-642 -644 0
-630 642 644 0
c gate 645 -643 -644 0
-643 -645 0
-644 -645 0
643 644 645 0
c gate 646 629 645 0
629 -646 0
645 -646 0
-629 -645 646 0
c gate 647 -629 -645 0
-629 -647 0
-645 -647 0
629 645 647 0
c gate 648 -646 -647 0
-646 -648 0
-647 -648 0
646 647 648 0
c gate 649 628 -648 0
628 -649 0
-648 -649 0
-628 648 649 0
c gate 650 -627 -649 0
-627 -650 0
-649 -650 0
627 649 650 0
c gate 651 -626 650 0
-626 -651 0
650 -651 0
626 -650 651 0
c gate 652 -628 648 0
-628 -652 0
648 -652 0
628 -648 652 0
c gate 653 -643 -646 0
-643 -653 0
-646 -653 0
643 646 653 0
c gate 654 9 20 0
9 -654 0
20 -654 0
-9 -20 654 0
c gate 655 10 19 0
10 -655 0
19 -655 0
-10 -19 655 0
c gate 656 -599 -637 0
-599 -656 0
-637 -656 0
599 637 656 0
c gate 657 655 -656 0
655 -657 0
-656 -657 0
-655 656 657 0
c gate 658 -637 -655 0
-637 -658 0
-655 -658 0
637 655 658 0
c gate 659 -657 -658 0
-657 -659 0
-658 -659 0
657 658 659 0
c gate 660 640 -659 0
640 -660 0
-659 -660 0
-640 659 660 0
c gate 661 -640 659 0
-640 -661 0
659 -661 0
640 -659 661 0
c gate 662 -660 -661 0
-660 -662 0
-661 -662 0
660 661 662 0
c gate 663 654 -662 0
654 -663 0
-662 -663 0
-654 662 663 0
c gate 664 -654 662 0
-654 -664 0
662 -664 0
654 -662 664 0
c gate 665 -663 -664 0
-663 -665 0
-664 -665 0
663 664 665 0
c gate 666 -653 665 0
-653 -666 0
665 -666 0
653 -665 666 0
c gate 667 -652 -666 0
-652 -667 0
-666 -667 0
652 666 667 0
c gate 668 -651 667 0
-651 -668 0
667 -668 0
651 -667 668 0
c gate 669 657 663 0
657 -669 0
663 -669 0
-657 -663 669 0
c gate 670 -653 669 0
-653 -670 0
669 -670 0
653 -669 670 0
c gate 671 -668 670 0
-668 -671 0
670 -671 0
668 -670 671 0
c PO
671 0
